NAME 
OBJSENSE MAX
ROWS
 N  OBJ
 L  packing[0]
 L  packing[1]
 L  packing[2]
 L  packing[3]
 L  packing[4]
 L  packing[5]
 L  packing[6]
 L  packing[7]
 L  packing[8]
 L  packing[9]
 L  packing[10]
 L  packing[11]
 L  packing[12]
 L  packing[13]
 L  packing[14]
 L  packing[15]
 L  packing[16]
 L  packing[17]
 L  packing[18]
 L  packing[19]
 L  packing[20]
 L  packing[21]
 L  packing[22]
 L  packing[23]
 L  packing[24]
 L  packing[25]
 L  packing[26]
 L  packing[27]
 L  packing[28]
 L  packing[29]
 L  packing[30]
 L  packing[31]
 L  packing[32]
 L  packing[33]
 L  packing[34]
 L  packing[35]
 L  packing[36]
 L  packing[37]
 L  packing[38]
 L  packing[39]
 L  packing[40]
 L  packing[41]
 L  packing[42]
 L  packing[43]
 L  packing[44]
 L  packing[45]
 L  packing[46]
 L  packing[47]
 L  packing[48]
 L  packing[49]
 L  R53     
COLUMNS
    MARKER    'MARKER'                 'INTORG'
    x[1]      OBJ       123
    x[1]      packing[1]  106
    x[1]      packing[2]  197
    x[1]      packing[3]  98
    x[1]      packing[4]  12
    x[1]      packing[5]  96
    x[1]      packing[6]  198
    x[1]      packing[7]  193
    x[1]      packing[8]  199
    x[1]      packing[9]  69
    x[1]      packing[10]  44
    x[1]      packing[12]  111
    x[1]      packing[13]  137
    x[1]      packing[14]  99
    x[1]      packing[15]  196
    x[1]      packing[16]  82
    x[1]      packing[17]  148
    x[1]      packing[18]  43
    x[1]      packing[20]  14
    x[1]      packing[21]  162
    x[1]      packing[22]  91
    x[1]      packing[23]  82
    x[1]      packing[24]  132
    x[1]      packing[25]  117
    x[1]      packing[26]  177
    x[1]      packing[27]  183
    x[1]      packing[28]  16
    x[1]      packing[29]  44
    x[1]      packing[30]  7
    x[1]      packing[31]  174
    x[1]      packing[32]  69
    x[1]      packing[33]  135
    x[1]      packing[34]  112
    x[1]      packing[35]  108
    x[1]      packing[36]  198
    x[1]      packing[37]  12
    x[1]      packing[39]  78
    x[1]      packing[40]  33
    x[1]      packing[41]  28
    x[1]      packing[43]  16
    x[1]      packing[44]  48
    x[1]      packing[45]  104
    x[1]      packing[46]  77
    x[1]      packing[47]  114
    x[1]      packing[48]  25
    x[2]      OBJ       148
    x[2]      packing[0]  145
    x[2]      packing[1]  150
    x[2]      packing[3]  171
    x[2]      packing[4]  155
    x[2]      packing[5]  199
    x[2]      packing[6]  44
    x[2]      packing[7]  170
    x[2]      packing[9]  175
    x[2]      packing[10]  148
    x[2]      packing[12]  41
    x[2]      packing[13]  104
    x[2]      packing[14]  51
    x[2]      packing[15]  171
    x[2]      packing[16]  180
    x[2]      packing[17]  48
    x[2]      packing[18]  32
    x[2]      packing[19]  161
    x[2]      packing[20]  179
    x[2]      packing[22]  188
    x[2]      packing[23]  9
    x[2]      packing[24]  106
    x[2]      packing[25]  60
    x[2]      packing[26]  109
    x[2]      packing[27]  191
    x[2]      packing[28]  148
    x[2]      packing[29]  41
    x[2]      packing[31]  160
    x[2]      packing[32]  54
    x[2]      packing[34]  47
    x[2]      packing[35]  182
    x[2]      packing[37]  111
    x[2]      packing[39]  54
    x[2]      packing[40]  20
    x[2]      packing[41]  136
    x[2]      packing[42]  162
    x[2]      packing[43]  91
    x[2]      packing[44]  82
    x[2]      packing[45]  15
    x[2]      packing[46]  133
    x[2]      packing[48]  112
    x[2]      packing[49]  103
    x[3]      OBJ       61
    x[3]      packing[1]  94
    x[3]      packing[2]  104
    x[3]      packing[3]  193
    x[3]      packing[6]  60
    x[3]      packing[7]  51
    x[3]      packing[8]  63
    x[3]      packing[9]  142
    x[3]      packing[10]  95
    x[3]      packing[11]  106
    x[3]      packing[12]  178
    x[3]      packing[13]  96
    x[3]      packing[15]  196
    x[3]      packing[16]  36
    x[3]      packing[17]  135
    x[3]      packing[19]  58
    x[3]      packing[20]  106
    x[3]      packing[21]  123
    x[3]      packing[23]  131
    x[3]      packing[24]  178
    x[3]      packing[25]  97
    x[3]      packing[27]  19
    x[3]      packing[28]  134
    x[3]      packing[29]  170
    x[3]      packing[30]  1
    x[3]      packing[31]  57
    x[3]      packing[33]  123
    x[3]      packing[34]  11
    x[3]      packing[37]  56
    x[3]      packing[38]  20
    x[3]      packing[39]  110
    x[3]      packing[40]  6
    x[3]      packing[41]  175
    x[3]      packing[42]  95
    x[3]      packing[43]  138
    x[3]      packing[44]  72
    x[3]      packing[45]  51
    x[3]      packing[46]  168
    x[3]      packing[47]  27
    x[3]      packing[49]  67
    x[4]      OBJ       179
    x[4]      packing[1]  104
    x[4]      packing[2]  85
    x[4]      packing[3]  54
    x[4]      packing[4]  22
    x[4]      packing[7]  103
    x[4]      packing[8]  67
    x[4]      packing[9]  74
    x[4]      packing[10]  70
    x[4]      packing[13]  176
    x[4]      packing[14]  33
    x[4]      packing[15]  28
    x[4]      packing[18]  19
    x[4]      packing[19]  97
    x[4]      packing[20]  30
    x[4]      packing[21]  136
    x[4]      packing[24]  19
    x[4]      packing[25]  58
    x[4]      packing[27]  26
    x[4]      packing[28]  159
    x[4]      packing[29]  114
    x[4]      packing[30]  199
    x[4]      packing[32]  79
    x[4]      packing[33]  176
    x[4]      packing[34]  65
    x[4]      packing[35]  5
    x[4]      packing[36]  196
    x[4]      packing[37]  194
    x[4]      packing[38]  159
    x[4]      packing[39]  162
    x[4]      packing[40]  64
    x[4]      packing[42]  180
    x[4]      packing[44]  153
    x[4]      packing[45]  36
    x[4]      packing[46]  44
    x[4]      packing[47]  125
    x[4]      packing[48]  44
    x[4]      packing[49]  137
    x[5]      OBJ       181
    x[5]      packing[1]  194
    x[5]      packing[2]  119
    x[5]      packing[3]  73
    x[5]      packing[4]  115
    x[5]      packing[5]  61
    x[5]      packing[7]  196
    x[5]      packing[8]  82
    x[5]      packing[14]  71
    x[5]      packing[15]  10
    x[5]      packing[17]  175
    x[5]      packing[18]  190
    x[5]      packing[21]  162
    x[5]      packing[22]  15
    x[5]      packing[24]  97
    x[5]      packing[25]  103
    x[5]      packing[26]  133
    x[5]      packing[27]  179
    x[5]      packing[29]  100
    x[5]      packing[30]  9
    x[5]      packing[32]  78
    x[5]      packing[33]  50
    x[5]      packing[34]  176
    x[5]      packing[35]  192
    x[5]      packing[36]  98
    x[5]      packing[38]  27
    x[5]      packing[40]  76
    x[5]      packing[41]  127
    x[5]      packing[45]  164
    x[5]      packing[47]  50
    x[5]      packing[48]  112
    x[5]      packing[49]  19
    x[5]      R53       1
    x[6]      OBJ       127
    x[6]      packing[1]  140
    x[6]      packing[3]  154
    x[6]      packing[4]  77
    x[6]      packing[5]  42
    x[6]      packing[6]  167
    x[6]      packing[7]  166
    x[6]      packing[8]  2
    x[6]      packing[10]  142
    x[6]      packing[11]  176
    x[6]      packing[12]  122
    x[6]      packing[13]  62
    x[6]      packing[14]  86
    x[6]      packing[15]  93
    x[6]      packing[16]  68
    x[6]      packing[17]  25
    x[6]      packing[18]  45
    x[6]      packing[19]  47
    x[6]      packing[21]  16
    x[6]      packing[22]  69
    x[6]      packing[23]  131
    x[6]      packing[24]  111
    x[6]      packing[26]  141
    x[6]      packing[27]  162
    x[6]      packing[28]  137
    x[6]      packing[29]  71
    x[6]      packing[30]  175
    x[6]      packing[32]  17
    x[6]      packing[33]  34
    x[6]      packing[34]  156
    x[6]      packing[35]  120
    x[6]      packing[37]  20
    x[6]      packing[38]  104
    x[6]      packing[39]  18
    x[6]      packing[40]  27
    x[6]      packing[41]  134
    x[6]      packing[43]  50
    x[6]      packing[44]  115
    x[6]      packing[45]  193
    x[6]      packing[47]  10
    x[6]      packing[48]  166
    x[6]      R53       1
    x[7]      OBJ       132
    x[7]      packing[0]  61
    x[7]      packing[1]  32
    x[7]      packing[5]  197
    x[7]      packing[7]  179
    x[7]      packing[8]  169
    x[7]      packing[10]  4
    x[7]      packing[13]  56
    x[7]      packing[14]  41
    x[7]      packing[15]  134
    x[7]      packing[16]  99
    x[7]      packing[17]  21
    x[7]      packing[18]  171
    x[7]      packing[19]  193
    x[7]      packing[21]  27
    x[7]      packing[22]  199
    x[7]      packing[23]  3
    x[7]      packing[24]  160
    x[7]      packing[26]  51
    x[7]      packing[28]  77
    x[7]      packing[29]  168
    x[7]      packing[30]  83
    x[7]      packing[31]  166
    x[7]      packing[32]  118
    x[7]      packing[33]  18
    x[7]      packing[34]  60
    x[7]      packing[35]  12
    x[7]      packing[36]  14
    x[7]      packing[37]  95
    x[7]      packing[38]  109
    x[7]      packing[40]  130
    x[7]      packing[41]  87
    x[7]      packing[42]  12
    x[7]      packing[43]  120
    x[7]      packing[44]  163
    x[7]      packing[46]  87
    x[7]      packing[48]  4
    x[8]      OBJ       167
    x[8]      packing[0]  138
    x[8]      packing[1]  73
    x[8]      packing[2]  108
    x[8]      packing[3]  15
    x[8]      packing[4]  65
    x[8]      packing[7]  190
    x[8]      packing[8]  198
    x[8]      packing[9]  55
    x[8]      packing[11]  59
    x[8]      packing[12]  5
    x[8]      packing[13]  190
    x[8]      packing[14]  167
    x[8]      packing[15]  189
    x[8]      packing[18]  94
    x[8]      packing[19]  14
    x[8]      packing[20]  112
    x[8]      packing[21]  54
    x[8]      packing[22]  69
    x[8]      packing[23]  18
    x[8]      packing[25]  5
    x[8]      packing[26]  175
    x[8]      packing[27]  132
    x[8]      packing[28]  52
    x[8]      packing[29]  101
    x[8]      packing[30]  91
    x[8]      packing[31]  23
    x[8]      packing[34]  174
    x[8]      packing[36]  154
    x[8]      packing[38]  50
    x[8]      packing[40]  94
    x[8]      packing[41]  167
    x[8]      packing[42]  10
    x[8]      packing[43]  158
    x[8]      packing[44]  150
    x[8]      packing[45]  195
    x[8]      packing[47]  43
    x[8]      packing[49]  91
    x[8]      R53       1
    x[9]      OBJ       141
    x[9]      packing[1]  40
    x[9]      packing[2]  73
    x[9]      packing[3]  171
    x[9]      packing[4]  118
    x[9]      packing[6]  136
    x[9]      packing[7]  67
    x[9]      packing[9]  114
    x[9]      packing[10]  65
    x[9]      packing[11]  137
    x[9]      packing[12]  86
    x[9]      packing[13]  111
    x[9]      packing[14]  164
    x[9]      packing[16]  18
    x[9]      packing[17]  110
    x[9]      packing[18]  162
    x[9]      packing[19]  112
    x[9]      packing[20]  104
    x[9]      packing[21]  124
    x[9]      packing[22]  126
    x[9]      packing[24]  40
    x[9]      packing[25]  5
    x[9]      packing[26]  36
    x[9]      packing[27]  44
    x[9]      packing[28]  171
    x[9]      packing[29]  133
    x[9]      packing[30]  180
    x[9]      packing[35]  150
    x[9]      packing[36]  130
    x[9]      packing[37]  92
    x[9]      packing[38]  131
    x[9]      packing[39]  45
    x[9]      packing[40]  49
    x[9]      packing[41]  107
    x[9]      packing[42]  173
    x[9]      packing[43]  145
    x[9]      packing[44]  154
    x[9]      packing[46]  174
    x[9]      packing[47]  3
    x[9]      packing[48]  131
    x[9]      packing[49]  135
    x[10]     OBJ       196
    x[10]     packing[0]  75
    x[10]     packing[3]  37
    x[10]     packing[5]  150
    x[10]     packing[6]  198
    x[10]     packing[7]  156
    x[10]     packing[8]  87
    x[10]     packing[9]  149
    x[10]     packing[10]  26
    x[10]     packing[11]  65
    x[10]     packing[13]  53
    x[10]     packing[15]  127
    x[10]     packing[17]  28
    x[10]     packing[19]  101
    x[10]     packing[20]  50
    x[10]     packing[21]  123
    x[10]     packing[22]  156
    x[10]     packing[23]  126
    x[10]     packing[24]  12
    x[10]     packing[25]  120
    x[10]     packing[26]  176
    x[10]     packing[27]  49
    x[10]     packing[30]  185
    x[10]     packing[31]  158
    x[10]     packing[32]  45
    x[10]     packing[33]  24
    x[10]     packing[34]  167
    x[10]     packing[35]  77
    x[10]     packing[36]  146
    x[10]     packing[37]  9
    x[10]     packing[38]  129
    x[10]     packing[39]  198
    x[10]     packing[40]  132
    x[10]     packing[41]  57
    x[10]     packing[42]  178
    x[10]     packing[43]  34
    x[10]     packing[44]  16
    x[10]     packing[46]  132
    x[10]     packing[47]  150
    x[10]     packing[49]  131
    x[11]     OBJ       60
    x[11]     packing[0]  182
    x[11]     packing[1]  196
    x[11]     packing[3]  83
    x[11]     packing[4]  176
    x[11]     packing[5]  55
    x[11]     packing[6]  61
    x[11]     packing[7]  165
    x[11]     packing[8]  151
    x[11]     packing[9]  17
    x[11]     packing[10]  13
    x[11]     packing[11]  194
    x[11]     packing[12]  36
    x[11]     packing[13]  141
    x[11]     packing[14]  170
    x[11]     packing[16]  25
    x[11]     packing[18]  40
    x[11]     packing[19]  63
    x[11]     packing[20]  114
    x[11]     packing[21]  61
    x[11]     packing[22]  44
    x[11]     packing[24]  66
    x[11]     packing[25]  159
    x[11]     packing[27]  175
    x[11]     packing[28]  9
    x[11]     packing[29]  38
    x[11]     packing[31]  24
    x[11]     packing[32]  127
    x[11]     packing[33]  169
    x[11]     packing[34]  192
    x[11]     packing[36]  175
    x[11]     packing[37]  56
    x[11]     packing[38]  152
    x[11]     packing[42]  114
    x[11]     packing[43]  33
    x[11]     packing[44]  48
    x[11]     packing[45]  183
    x[11]     packing[46]  110
    x[11]     packing[47]  108
    x[11]     packing[49]  147
    x[12]     OBJ       78
    x[12]     packing[0]  144
    x[12]     packing[1]  163
    x[12]     packing[2]  183
    x[12]     packing[3]  129
    x[12]     packing[4]  85
    x[12]     packing[5]  162
    x[12]     packing[6]  123
    x[12]     packing[7]  89
    x[12]     packing[8]  9
    x[12]     packing[10]  53
    x[12]     packing[11]  165
    x[12]     packing[12]  48
    x[12]     packing[13]  172
    x[12]     packing[14]  120
    x[12]     packing[15]  156
    x[12]     packing[16]  159
    x[12]     packing[18]  162
    x[12]     packing[19]  132
    x[12]     packing[20]  174
    x[12]     packing[21]  186
    x[12]     packing[22]  4
    x[12]     packing[23]  82
    x[12]     packing[24]  4
    x[12]     packing[25]  137
    x[12]     packing[26]  20
    x[12]     packing[27]  33
    x[12]     packing[29]  71
    x[12]     packing[30]  131
    x[12]     packing[31]  23
    x[12]     packing[32]  55
    x[12]     packing[33]  71
    x[12]     packing[34]  193
    x[12]     packing[35]  146
    x[12]     packing[38]  15
    x[12]     packing[39]  66
    x[12]     packing[40]  61
    x[12]     packing[41]  127
    x[12]     packing[44]  74
    x[12]     packing[45]  52
    x[12]     packing[46]  6
    x[12]     packing[47]  81
    x[13]     OBJ       196
    x[13]     packing[0]  43
    x[13]     packing[1]  146
    x[13]     packing[2]  195
    x[13]     packing[4]  5
    x[13]     packing[5]  97
    x[13]     packing[6]  166
    x[13]     packing[7]  173
    x[13]     packing[8]  141
    x[13]     packing[9]  29
    x[13]     packing[10]  121
    x[13]     packing[11]  66
    x[13]     packing[13]  142
    x[13]     packing[15]  83
    x[13]     packing[17]  40
    x[13]     packing[18]  197
    x[13]     packing[19]  145
    x[13]     packing[22]  119
    x[13]     packing[23]  69
    x[13]     packing[24]  165
    x[13]     packing[25]  129
    x[13]     packing[26]  168
    x[13]     packing[27]  35
    x[13]     packing[29]  98
    x[13]     packing[30]  116
    x[13]     packing[32]  140
    x[13]     packing[34]  133
    x[13]     packing[36]  86
    x[13]     packing[37]  55
    x[13]     packing[38]  194
    x[13]     packing[39]  91
    x[13]     packing[40]  112
    x[13]     packing[41]  123
    x[13]     packing[42]  143
    x[13]     packing[43]  11
    x[13]     packing[45]  149
    x[13]     packing[47]  162
    x[13]     packing[48]  127
    x[13]     packing[49]  87
    x[13]     R53       1
    x[14]     OBJ       86
    x[14]     packing[0]  66
    x[14]     packing[1]  166
    x[14]     packing[3]  6
    x[14]     packing[5]  94
    x[14]     packing[6]  25
    x[14]     packing[9]  118
    x[14]     packing[11]  119
    x[14]     packing[13]  88
    x[14]     packing[14]  81
    x[14]     packing[15]  195
    x[14]     packing[17]  96
    x[14]     packing[18]  173
    x[14]     packing[19]  59
    x[14]     packing[20]  45
    x[14]     packing[21]  55
    x[14]     packing[22]  68
    x[14]     packing[23]  160
    x[14]     packing[24]  127
    x[14]     packing[25]  36
    x[14]     packing[26]  35
    x[14]     packing[27]  135
    x[14]     packing[28]  103
    x[14]     packing[29]  3
    x[14]     packing[30]  98
    x[14]     packing[31]  125
    x[14]     packing[33]  150
    x[14]     packing[34]  77
    x[14]     packing[35]  158
    x[14]     packing[37]  155
    x[14]     packing[38]  1
    x[14]     packing[39]  110
    x[14]     packing[40]  157
    x[14]     packing[42]  77
    x[14]     packing[43]  195
    x[14]     packing[44]  18
    x[14]     packing[45]  41
    x[14]     packing[47]  62
    x[14]     packing[48]  105
    x[14]     packing[49]  194
    x[15]     OBJ       15
    x[15]     packing[0]  28
    x[15]     packing[2]  19
    x[15]     packing[3]  165
    x[15]     packing[4]  29
    x[15]     packing[5]  103
    x[15]     packing[6]  18
    x[15]     packing[7]  27
    x[15]     packing[8]  68
    x[15]     packing[9]  37
    x[15]     packing[11]  195
    x[15]     packing[13]  108
    x[15]     packing[14]  115
    x[15]     packing[15]  47
    x[15]     packing[16]  178
    x[15]     packing[17]  35
    x[15]     packing[18]  28
    x[15]     packing[20]  190
    x[15]     packing[22]  100
    x[15]     packing[24]  59
    x[15]     packing[26]  112
    x[15]     packing[28]  149
    x[15]     packing[29]  147
    x[15]     packing[30]  191
    x[15]     packing[31]  96
    x[15]     packing[32]  81
    x[15]     packing[33]  87
    x[15]     packing[36]  106
    x[15]     packing[40]  37
    x[15]     packing[41]  131
    x[15]     packing[42]  43
    x[15]     packing[43]  155
    x[15]     packing[44]  2
    x[15]     packing[45]  95
    x[15]     packing[46]  2
    x[15]     packing[47]  159
    x[15]     packing[49]  133
    x[16]     OBJ       185
    x[16]     packing[0]  45
    x[16]     packing[1]  106
    x[16]     packing[4]  63
    x[16]     packing[5]  99
    x[16]     packing[6]  113
    x[16]     packing[8]  198
    x[16]     packing[9]  63
    x[16]     packing[11]  196
    x[16]     packing[12]  160
    x[16]     packing[13]  77
    x[16]     packing[14]  34
    x[16]     packing[16]  165
    x[16]     packing[19]  145
    x[16]     packing[20]  169
    x[16]     packing[21]  115
    x[16]     packing[22]  180
    x[16]     packing[23]  44
    x[16]     packing[24]  149
    x[16]     packing[25]  126
    x[16]     packing[26]  98
    x[16]     packing[27]  131
    x[16]     packing[29]  190
    x[16]     packing[30]  78
    x[16]     packing[32]  175
    x[16]     packing[33]  12
    x[16]     packing[34]  168
    x[16]     packing[38]  46
    x[16]     packing[39]  116
    x[16]     packing[40]  15
    x[16]     packing[41]  15
    x[16]     packing[42]  92
    x[16]     packing[43]  122
    x[16]     packing[44]  196
    x[16]     packing[45]  94
    x[16]     packing[46]  188
    x[16]     packing[48]  1
    x[16]     packing[49]  184
    x[16]     R53       1
    x[17]     OBJ       3
    x[17]     packing[0]  148
    x[17]     packing[1]  26
    x[17]     packing[2]  188
    x[17]     packing[3]  2
    x[17]     packing[5]  78
    x[17]     packing[8]  42
    x[17]     packing[10]  173
    x[17]     packing[11]  52
    x[17]     packing[13]  194
    x[17]     packing[14]  88
    x[17]     packing[15]  98
    x[17]     packing[17]  154
    x[17]     packing[18]  139
    x[17]     packing[19]  87
    x[17]     packing[20]  23
    x[17]     packing[21]  104
    x[17]     packing[23]  97
    x[17]     packing[24]  40
    x[17]     packing[26]  58
    x[17]     packing[27]  117
    x[17]     packing[28]  60
    x[17]     packing[30]  4
    x[17]     packing[31]  176
    x[17]     packing[32]  77
    x[17]     packing[33]  65
    x[17]     packing[34]  197
    x[17]     packing[35]  20
    x[17]     packing[36]  73
    x[17]     packing[37]  115
    x[17]     packing[38]  26
    x[17]     packing[39]  16
    x[17]     packing[40]  127
    x[17]     packing[41]  44
    x[17]     packing[42]  92
    x[17]     packing[43]  40
    x[17]     packing[44]  81
    x[17]     packing[46]  31
    x[17]     packing[48]  126
    x[17]     packing[49]  159
    x[18]     OBJ       13
    x[18]     packing[0]  62
    x[18]     packing[1]  52
    x[18]     packing[2]  71
    x[18]     packing[4]  81
    x[18]     packing[5]  29
    x[18]     packing[6]  140
    x[18]     packing[9]  80
    x[18]     packing[10]  197
    x[18]     packing[11]  143
    x[18]     packing[12]  111
    x[18]     packing[13]  129
    x[18]     packing[14]  147
    x[18]     packing[15]  25
    x[18]     packing[16]  40
    x[18]     packing[17]  69
    x[18]     packing[18]  76
    x[18]     packing[19]  149
    x[18]     packing[21]  180
    x[18]     packing[22]  148
    x[18]     packing[25]  193
    x[18]     packing[26]  132
    x[18]     packing[27]  195
    x[18]     packing[28]  153
    x[18]     packing[30]  65
    x[18]     packing[31]  151
    x[18]     packing[32]  28
    x[18]     packing[35]  167
    x[18]     packing[36]  149
    x[18]     packing[37]  183
    x[18]     packing[38]  181
    x[18]     packing[40]  98
    x[18]     packing[41]  88
    x[18]     packing[42]  119
    x[18]     packing[43]  60
    x[18]     packing[44]  80
    x[18]     packing[45]  145
    x[18]     packing[46]  6
    x[18]     packing[48]  76
    x[18]     packing[49]  147
    x[19]     OBJ       193
    x[19]     packing[0]  68
    x[19]     packing[1]  29
    x[19]     packing[2]  198
    x[19]     packing[3]  105
    x[19]     packing[6]  160
    x[19]     packing[7]  164
    x[19]     packing[9]  24
    x[19]     packing[10]  52
    x[19]     packing[11]  197
    x[19]     packing[13]  45
    x[19]     packing[15]  156
    x[19]     packing[16]  155
    x[19]     packing[17]  48
    x[19]     packing[19]  193
    x[19]     packing[21]  119
    x[19]     packing[22]  81
    x[19]     packing[23]  101
    x[19]     packing[24]  131
    x[19]     packing[26]  103
    x[19]     packing[28]  59
    x[19]     packing[29]  186
    x[19]     packing[30]  126
    x[19]     packing[31]  97
    x[19]     packing[32]  141
    x[19]     packing[33]  59
    x[19]     packing[35]  73
    x[19]     packing[36]  173
    x[19]     packing[38]  65
    x[19]     packing[39]  179
    x[19]     packing[40]  126
    x[19]     packing[41]  133
    x[19]     packing[42]  121
    x[19]     packing[44]  149
    x[19]     packing[45]  93
    x[19]     packing[47]  73
    x[19]     packing[49]  124
    x[19]     R53       1
    x[20]     OBJ       68
    x[20]     packing[0]  67
    x[20]     packing[1]  62
    x[20]     packing[2]  163
    x[20]     packing[3]  45
    x[20]     packing[4]  197
    x[20]     packing[5]  97
    x[20]     packing[6]  192
    x[20]     packing[7]  74
    x[20]     packing[8]  55
    x[20]     packing[9]  138
    x[20]     packing[10]  151
    x[20]     packing[11]  104
    x[20]     packing[12]  30
    x[20]     packing[13]  93
    x[20]     packing[14]  52
    x[20]     packing[15]  129
    x[20]     packing[17]  24
    x[20]     packing[18]  75
    x[20]     packing[19]  82
    x[20]     packing[20]  199
    x[20]     packing[21]  185
    x[20]     packing[23]  148
    x[20]     packing[24]  54
    x[20]     packing[26]  140
    x[20]     packing[27]  186
    x[20]     packing[29]  177
    x[20]     packing[30]  59
    x[20]     packing[33]  55
    x[20]     packing[34]  29
    x[20]     packing[35]  81
    x[20]     packing[37]  9
    x[20]     packing[38]  103
    x[20]     packing[39]  177
    x[20]     packing[40]  182
    x[20]     packing[43]  31
    x[20]     packing[44]  181
    x[20]     packing[47]  82
    x[20]     packing[48]  151
    MARKER    'MARKER'                 'INTEND'
RHS
    RHS1      packing[0]  636
    RHS1      packing[1]  940
    RHS1      packing[2]  852
    RHS1      packing[3]  751
    RHS1      packing[4]  600
    RHS1      packing[5]  780
    RHS1      packing[6]  901
    RHS1      packing[7]  1082
    RHS1      packing[8]  766
    RHS1      packing[9]  642
    RHS1      packing[10]  677
    RHS1      packing[11]  987
    RHS1      packing[12]  464
    RHS1      packing[13]  1087
    RHS1      packing[14]  760
    RHS1      packing[15]  1017
    RHS1      packing[16]  603
    RHS1      packing[17]  578
    RHS1      packing[18]  823
    RHS1      packing[19]  919
    RHS1      packing[20]  755
    RHS1      packing[21]  966
    RHS1      packing[22]  829
    RHS1      packing[23]  601
    RHS1      packing[24]  825
    RHS1      packing[25]  673
    RHS1      packing[26]  932
    RHS1      packing[27]  996
    RHS1      packing[28]  714
    RHS1      packing[29]  926
    RHS1      packing[30]  899
    RHS1      packing[31]  715
    RHS1      packing[32]  642
    RHS1      packing[33]  614
    RHS1      packing[34]  979
    RHS1      packing[35]  746
    RHS1      packing[36]  849
    RHS1      packing[37]  581
    RHS1      packing[38]  756
    RHS1      packing[39]  710
    RHS1      packing[40]  773
    RHS1      packing[41]  840
    RHS1      packing[42]  806
    RHS1      packing[43]  700
    RHS1      packing[44]  891
    RHS1      packing[45]  805
    RHS1      packing[46]  579
    RHS1      packing[47]  625
    RHS1      packing[48]  590
    RHS1      packing[49]  929
    RHS1      R53       5
BOUNDS
 BV BND1      x[1]    
 BV BND1      x[2]    
 BV BND1      x[3]    
 BV BND1      x[4]    
 BV BND1      x[5]    
 BV BND1      x[6]    
 BV BND1      x[7]    
 BV BND1      x[8]    
 BV BND1      x[9]    
 BV BND1      x[10]   
 BV BND1      x[11]   
 BV BND1      x[12]   
 BV BND1      x[13]   
 BV BND1      x[14]   
 BV BND1      x[15]   
 BV BND1      x[16]   
 BV BND1      x[17]   
 BV BND1      x[18]   
 BV BND1      x[19]   
 BV BND1      x[20]   
ENDATA
